
  32    4
  10   10   10   10

   0   0   0   0   0  10 2 3 4 5 6 7 12 13 30 31 
   9   1   0   1   1  10 28 26 24 23 22 21 19 18 10 8 
   1   0   1   6   4  10 29 24 23 22 19 18 17 16 15 8 
   4   4   1   0   2   8 27 24 21 18 17 15 14 11 
   5   0   4   5   4   6 27 23 18 17 15 9 
   3   3   5   3   0   6 26 22 21 20 16 14 
   6   2   4   0   7   3 17 15 9 
  10   5   0   6   3   3 25 20 14 
   3   0   3   3   3   1 14 
  10   0   4   4   3   1 14 
   5   0   4   4   4   1 19 
   7   8   0   4   5   1 16 
   2   5   7   7   0   1 16 
   9   4   4   1   0   1 32
   9   6   4   3   0   1 32
   9   2   3   3   0   1 32
   6   3   5   5   0   1 32
   1   2   0   2   4   1 32
   1   5   0   5   3   1 32
   3   5   8   0   2   1 32
   3   0   3   5   2   1 32
   6   0   5   3   4   1 32
   7   0   5   5   4   1 32
   3   7   4   6   0   1 32
  10   0   7   2   4   1 32
  10   0   2   5   3   1 32
   6   3   5   0   5   1 32
   9   4   3   0   8   1 32
   2   2   0   4   7   1 32
   5   4   3   4   0   1 32
   5   5   2   0   6   1 32
   0   0   0   0   0   0 
